c read Graph
c width = 77
c time = 44 ms
c width = 12
c time = 83 ms
c width = 11
c time = 107 ms
c width = 10
c time = 122 ms
c width = 9
c time = 1248 ms
c width = 9
c time = 4958 ms
s td 79 10 90
b 1 1 2 11
b 2 2 3 11 12
b 3 8 9 19 20
b 4 3 11 12 21
b 5 8 19 20 30
b 6 61 71 72 82
b 7 70 79 80 89
b 8 61 72 82 83
b 9 70 79 88 89
b 10 3 4 5 14
b 11 3 5 13 14 22 31
b 12 3 13 21 22 31
b 13 3 12 13 21 22
b 14 5 13 14 22 24 31 33
b 15 5 14 22 24 31 33 42
b 16 5 14 24 31 33 42 51
b 17 31 41 42 51
b 18 22 31 32 33 42
b 19 13 22 23 24 33
b 20 5 6 14 15 24 33 42 51
b 21 6 7 14 15 16 24 33 42 51
b 22 7 15 16 24 25 33 42 51
b 23 7 16 17 24 25 26 33 42 51
b 24 7 17 18 24 25 26 27 33 42 51
b 25 7 18 24 25 26 27 33 34 42 51
b 26 7 18 25 26 27 33 34 35 42 51
b 27 7 18 26 27 33 34 35 36 42 51
b 28 7 18 27 33 34 35 36 42 44 51
b 29 7 18 27 33 35 36 42 44 51 53
b 30 7 18 27 35 36 42 44 45 51 53
b 31 7 18 27 36 42 44 45 51 53 62
b 32 7 18 27 36 44 45 51 53 54 62
b 33 7 18 27 36 45 51 53 54 61 62
b 34 7 18 27 36 45 53 54 61 62 63
b 35 7 18 27 36 45 54 61 62 63 72
b 36 7 18 27 36 45 54 61 63 72 83
b 37 7 18 27 36 45 54 63 72 73 83
b 38 7 18 27 36 45 54 63 64 73 83
b 39 7 18 27 36 45 54 55 64 73 83
b 40 7 18 27 36 45 46 55 64 73 83
b 41 7 18 27 36 37 46 55 64 73 83
b 42 7 18 27 37 46 55 64 73 74 83
b 43 7 18 27 37 46 55 64 65 74 83
b 44 7 18 27 37 46 55 56 65 74 83
b 45 7 18 27 37 46 47 56 65 74 83
b 46 7 18 27 37 38 47 56 65 74 83
b 47 7 18 27 29 38 47 56 65 74 83
b 48 7 18 29 38 40 47 56 65 74 83
b 49 29 38 40 47 49 56 65 74 83
b 50 38 40 47 48 49 56 65 74 83
b 51 40 47 48 49 50 56 65 74 83
b 52 47 48 49 50 56 57 65 74 83
b 53 48 49 50 56 57 58 65 74 83
b 54 49 50 56 57 58 60 65 74 83
b 55 49 56 57 58 60 65 66 74 83
b 56 49 57 58 60 65 66 68 74 77 83
b 57 49 58 60 65 66 68 74 77 83 86
b 58 65 66 68 74 75 77 83 86
b 59 66 68 74 75 76 77 83 86
b 60 74 75 76 77 83 84 86
b 61 75 76 77 83 84 85 86
b 62 42 51 52 53 62
b 63 33 42 43 44 53
b 64 29 38 39 40 49
b 65 18 27 28 29 38
b 66 7 18 29 30 40
b 67 7 8 18 29 30
b 68 8 18 19 29 30
b 69 57 66 67 68 77
b 70 49 58 60 68 69 77 86
b 71 60 68 69 77 86 88
b 72 77 86 87 88
b 73 60 68 69 77 78 88
b 74 60 69 70 78 88
b 75 69 70 78 79 88
b 76 49 58 59 60 69
b 77 80 89 90
b 78 71 81 82
b 79 9 10 20
1 2
2 4
3 79
3 5
4 13
5 68
6 78
6 8
7 77
7 9
8 36
9 75
10 11
11 14
11 12
12 13
14 19
14 15
15 18
15 16
16 20
16 17
20 21
21 22
22 23
23 24
24 25
25 26
26 27
27 28
28 29
29 63
29 30
30 31
31 62
31 32
32 33
33 34
34 35
35 36
36 37
37 38
38 39
39 40
40 41
41 42
42 43
43 44
44 45
45 46
46 47
47 65
47 48
48 66
48 49
49 64
49 50
50 51
51 52
52 53
53 54
54 55
55 56
56 69
56 57
57 70
57 58
58 59
59 60
60 61
66 67
67 68
70 76
70 71
71 72
71 73
73 74
74 75
